clingo version 5.4.0
Reading from stdin
Solving...
SATISFIABLE

Models       : 1+
Calls        : 1
Time         : 1764.814s (Solving: 1757.65s 1st Model: 1757.65s Unsat: 0.00s)
CPU Time     : 1307.943s
